
Gurobi 8.1.1 (win64) logging started 11/28/19 12:01:02

Changed value of parameter LogFile to logs/drand/rlt/drand-07-110-0.log
   Prev: gurobi.log  Default: 
Changed value of parameter LogToConsole to 0
   Prev: 1  Min: 0  Max: 1  Default: 1
Changed value of parameter TimeLimit to 3600.0
   Prev: 1e+100  Min: 0.0  Max: 1e+100  Default: 1e+100
Optimize a model with 226405 rows, 75855 columns and 530597 nonzeros
Variable types: 0 continuous, 75855 integer (389 binary)
Coefficient statistics:
  Matrix range     [1e+00, 1e+00]
  Objective range  [1e+00, 1e+00]
  Bounds range     [1e+00, 1e+00]
  RHS range        [1e+00, 1e+00]
Presolve time: 2.88s
Presolved: 226405 rows, 75855 columns, 530597 nonzeros
Variable types: 0 continuous, 75855 integer (75855 binary)
Found heuristic solution: objective 8.0000000
Found heuristic solution: objective 7.0000000

Root simplex log...

Iteration    Objective       Primal Inf.    Dual Inf.      Time
    2431    1.0000066e+00   8.250000e+00   0.000000e+00      5s
    3181    1.3333387e+00   7.333333e+00   0.000000e+00     10s
    3981    1.3445353e+00   5.017274e+00   0.000000e+00     15s
    4851    1.3495748e+00   2.145677e+02   0.000000e+00     20s
    6709    1.3504266e+00   0.000000e+00   0.000000e+00     22s

Root relaxation: objective 1.350427e+00, 6709 iterations, 18.80 seconds
Total elapsed time = 25.32s

    Nodes    |    Current Node    |     Objective Bounds      |     Work
 Expl Unexpl |  Obj  Depth IntInf | Incumbent    BestBd   Gap | It/Node Time

     0     0    1.35043    0 2372    7.00000    1.35043  80.7%     -   31s
     0     0    1.57638    0 1514    7.00000    1.57638  77.5%     -   68s
     0     0    1.68957    0 1950    7.00000    1.68957  75.9%     -  114s
     0     0    1.69904    0 1774    7.00000    1.69904  75.7%     -  134s
     0     0    1.72607    0 1969    7.00000    1.72607  75.3%     -  146s
     0     0    1.73635    0 1948    7.00000    1.73635  75.2%     -  216s
     0     0    1.75436    0 2378    7.00000    1.75436  74.9%     -  227s
     0     0    1.75517    0 2365    7.00000    1.75517  74.9%     -  254s
     0     0    1.76108    0 2259    7.00000    1.76108  74.8%     -  265s
     0     0    1.76159    0 2215    7.00000    1.76159  74.8%     -  311s
     0     0    1.76962    0 2137    7.00000    1.76962  74.7%     -  327s
     0     0    1.76988    0 2139    7.00000    1.76988  74.7%     -  355s
     0     0    1.77659    0 2128    7.00000    1.77659  74.6%     -  370s
     0     0    1.77681    0 2131    7.00000    1.77681  74.6%     -  404s
     0     0    1.78349    0 1997    7.00000    1.78349  74.5%     -  420s
     0     0    1.78350    0 1991    7.00000    1.78350  74.5%     -  424s
     0     0    1.79103    0 1905    7.00000    1.79103  74.4%     -  444s
     0     0    1.79126    0 1903    7.00000    1.79126  74.4%     -  480s
     0     0    1.79735    0 2107    7.00000    1.79735  74.3%     -  498s
     0     0    1.79747    0 2083    7.00000    1.79747  74.3%     -  534s
     0     0    1.80438    0 1914    7.00000    1.80438  74.2%     -  555s
     0     0    1.80455    0 1900    7.00000    1.80455  74.2%     -  593s
     0     0    1.80913    0 1802    7.00000    1.80913  74.2%     -  615s
     0     0    1.80934    0 1792    7.00000    1.80934  74.2%     -  777s
     0     0    1.81297    0 2127    7.00000    1.81297  74.1%     -  798s
     0     0    1.81329    0 2133    7.00000    1.81329  74.1%     -  806s
     0     0    1.81833    0 1894    7.00000    1.81833  74.0%     -  830s
     0     0    1.81841    0 1946    7.00000    1.81841  74.0%     -  975s
     0     0    1.82180    0 1908    7.00000    1.82180  74.0%     -  995s
     0     0    1.82185    0 1913    7.00000    1.82185  74.0%     - 1028s
     0     0    1.82503    0 2021    7.00000    1.82503  73.9%     - 1052s
     0     0    1.82509    0 2013    7.00000    1.82509  73.9%     - 1059s
     0     0    1.82815    0 1783    7.00000    1.82815  73.9%     - 1081s
     0     0    1.82817    0 1803    7.00000    1.82817  73.9%     - 1235s
     0     0    1.83125    0 1870    7.00000    1.83125  73.8%     - 1258s
     0     0    1.83136    0 1913    7.00000    1.83136  73.8%     - 1276s
     0     0    1.83451    0 1908    7.00000    1.83451  73.8%     - 1303s
     0     0    1.83453    0 1910    7.00000    1.83453  73.8%     - 1320s
     0     0    1.83682    0 1882    7.00000    1.83682  73.8%     - 1344s
     0     0    1.83690    0 1945    7.00000    1.83690  73.8%     - 1377s
     0     0    1.83856    0 1807    7.00000    1.83856  73.7%     - 1401s
     0     0    1.83864    0 1853    7.00000    1.83864  73.7%     - 1562s
     0     0    1.84002    0 1895    7.00000    1.84002  73.7%     - 1586s
     0     0    1.84009    0 1933    7.00000    1.84009  73.7%     - 1597s
     0     0    1.84165    0 1893    7.00000    1.84165  73.7%     - 1623s
     0     0    1.84173    0 1918    7.00000    1.84173  73.7%     - 1655s
     0     0    1.84325    0 1920    7.00000    1.84325  73.7%     - 1685s
     0     0    1.84330    0 1940    7.00000    1.84330  73.7%     - 1868s
     0     0    1.84468    0 2029    7.00000    1.84468  73.6%     - 1897s
     0     0    1.84470    0 2034    7.00000    1.84470  73.6%     - 1943s
     0     0    1.84583    0 1933    7.00000    1.84583  73.6%     - 1971s
     0     0    1.84583    0 1934    7.00000    1.84583  73.6%     - 2153s
     0     0    1.84673    0 1907    7.00000    1.84673  73.6%     - 2181s
     0     0    1.84756    0 1959    7.00000    1.84756  73.6%     - 2215s
     0     0    1.84756    0 1959    7.00000    1.84756  73.6%     - 2216s
     0     0    1.84756    0 1959    7.00000    1.84756  73.6%     - 3600s

Cutting planes:
  Gomory: 4
  MIR: 2
  Zero half: 134

Explored 1 nodes (152558 simplex iterations) in 3600.15 seconds
Thread count was 4 (of 4 available processors)

Solution count 2: 7 8 

Time limit reached
Best objective 7.000000000000e+00, best bound 2.000000000000e+00, gap 71.4286%
